jobs  (incl. supersource/sink ):	52
RESOURCES
- renewable                 : 2 R
- nonrenewable              : 2 N
- doubly constrained        : 0 D
************************************************************************
PRECEDENCE RELATIONS:
jobnr.    #modes  #successors   successors
1	1	12		2 3 4 5 6 7 9 11 14 15 17 18 
2	3	6		25 20 16 13 12 10 
3	3	3		22 13 8 
4	3	8		36 29 26 25 24 23 20 16 
5	3	7		29 28 26 23 20 19 16 
6	3	4		36 23 16 13 
7	3	10		51 36 34 31 29 26 25 24 23 21 
8	3	4		29 26 23 16 
9	3	8		51 38 34 31 30 29 28 21 
10	3	10		51 42 32 31 30 28 27 26 24 22 
11	3	9		51 42 38 36 31 30 29 24 21 
12	3	7		36 34 31 29 27 24 23 
13	3	9		51 38 34 32 30 29 27 26 24 
14	3	6		36 33 32 31 27 20 
15	3	5		51 31 30 26 21 
16	3	4		51 34 31 21 
17	3	3		34 30 21 
18	3	10		51 50 42 41 38 37 36 33 32 29 
19	3	8		51 50 42 41 35 32 31 27 
20	3	10		51 50 49 48 42 41 39 38 35 30 
21	3	6		50 41 35 33 32 27 
22	3	7		50 49 41 37 36 35 33 
23	3	6		50 49 38 33 32 30 
24	3	5		50 49 41 35 33 
25	3	6		48 47 46 40 39 37 
26	3	6		47 46 45 41 40 39 
27	3	5		49 48 44 40 37 
28	3	4		47 46 45 36 
29	3	6		49 48 47 46 45 43 
30	3	4		47 46 44 37 
31	3	4		46 45 43 39 
32	3	3		46 40 39 
33	3	3		48 46 39 
34	3	3		44 42 40 
35	3	3		47 45 43 
36	3	2		44 40 
37	3	2		45 43 
38	3	2		45 43 
39	3	1		44 
40	3	1		43 
41	3	1		44 
42	3	1		43 
43	3	1		52 
44	3	1		52 
45	3	1		52 
46	3	1		52 
47	3	1		52 
48	3	1		52 
49	3	1		52 
50	3	1		52 
51	3	1		52 
52	1	0		
************************************************************************
REQUESTS/DURATIONS
jobnr.	mode	dur	R1	R2	N1	N2	
------------------------------------------------------------------------
1	1	0	0	0	0	0	
2	1	1	9	0	9	4	
	2	5	0	7	7	3	
	3	9	0	6	6	3	
3	1	1	4	0	6	7	
	2	1	0	7	4	7	
	3	7	0	4	1	5	
4	1	1	0	5	8	7	
	2	1	6	0	5	7	
	3	8	6	0	4	7	
5	1	5	7	0	8	9	
	2	5	0	7	8	5	
	3	9	3	0	8	5	
6	1	3	9	0	8	7	
	2	5	0	8	7	6	
	3	8	0	7	6	5	
7	1	7	0	8	6	6	
	2	8	0	5	5	2	
	3	9	3	0	4	1	
8	1	2	0	9	4	7	
	2	6	7	0	2	4	
	3	10	7	0	2	3	
9	1	3	1	0	7	9	
	2	7	1	0	7	8	
	3	8	0	3	6	7	
10	1	5	7	0	7	2	
	2	6	6	0	6	2	
	3	7	2	0	2	1	
11	1	2	4	0	10	3	
	2	5	3	0	7	3	
	3	7	0	5	6	2	
12	1	3	0	4	2	10	
	2	4	5	0	1	5	
	3	6	2	0	1	5	
13	1	2	6	0	9	8	
	2	6	4	0	5	6	
	3	8	0	2	4	2	
14	1	5	0	8	3	8	
	2	6	1	0	3	8	
	3	7	0	2	3	6	
15	1	1	0	10	5	5	
	2	3	0	9	5	5	
	3	10	2	0	4	3	
16	1	2	6	0	8	8	
	2	4	6	0	6	8	
	3	9	5	0	4	7	
17	1	3	4	0	4	5	
	2	8	3	0	2	4	
	3	9	0	1	2	3	
18	1	2	6	0	5	8	
	2	4	6	0	3	5	
	3	6	6	0	2	1	
19	1	2	9	0	6	9	
	2	5	0	7	5	8	
	3	6	8	0	4	6	
20	1	6	0	8	3	7	
	2	7	0	5	3	6	
	3	10	0	4	1	6	
21	1	5	0	7	6	2	
	2	6	0	7	6	1	
	3	7	7	0	6	1	
22	1	1	2	0	4	4	
	2	7	1	0	4	4	
	3	8	1	0	2	3	
23	1	1	7	0	4	1	
	2	7	5	0	3	1	
	3	10	0	5	3	1	
24	1	1	0	8	7	6	
	2	7	6	0	6	5	
	3	10	0	6	5	5	
25	1	2	10	0	3	10	
	2	4	9	0	3	8	
	3	8	0	2	3	8	
26	1	5	6	0	5	7	
	2	6	4	0	5	6	
	3	7	3	0	3	5	
27	1	1	9	0	8	10	
	2	2	7	0	6	9	
	3	3	4	0	6	8	
28	1	4	7	0	10	8	
	2	5	0	6	7	5	
	3	8	5	0	5	3	
29	1	6	0	6	8	6	
	2	7	0	5	8	6	
	3	8	0	4	8	4	
30	1	5	8	0	5	3	
	2	9	0	5	4	3	
	3	10	7	0	2	2	
31	1	3	8	0	10	5	
	2	3	0	2	6	4	
	3	6	0	2	1	4	
32	1	5	0	10	6	9	
	2	6	0	7	4	6	
	3	8	0	7	2	6	
33	1	3	8	0	1	2	
	2	6	0	2	1	1	
	3	9	0	1	1	1	
34	1	6	0	8	1	7	
	2	7	2	0	1	5	
	3	9	0	6	1	3	
35	1	6	3	0	8	8	
	2	7	0	1	7	7	
	3	8	0	1	4	7	
36	1	2	10	0	2	4	
	2	3	0	5	1	3	
	3	8	0	4	1	3	
37	1	3	0	10	4	8	
	2	5	0	6	4	7	
	3	7	0	4	4	6	
38	1	3	10	0	9	9	
	2	5	0	5	7	5	
	3	9	0	5	7	4	
39	1	3	5	0	9	9	
	2	6	2	0	9	7	
	3	7	0	3	8	7	
40	1	4	0	8	5	10	
	2	4	8	0	3	8	
	3	5	0	8	2	6	
41	1	4	0	9	1	6	
	2	7	6	0	1	5	
	3	9	3	0	1	5	
42	1	4	0	4	7	5	
	2	6	7	0	5	4	
	3	7	0	4	5	3	
43	1	2	2	0	5	5	
	2	6	0	9	3	4	
	3	8	0	8	2	2	
44	1	1	0	9	5	8	
	2	3	6	0	4	6	
	3	8	5	0	3	5	
45	1	2	6	0	9	5	
	2	4	0	8	7	5	
	3	7	0	8	5	5	
46	1	1	0	3	8	4	
	2	2	0	3	4	2	
	3	9	7	0	1	2	
47	1	1	7	0	9	7	
	2	4	0	1	9	4	
	3	7	0	1	9	2	
48	1	3	6	0	3	8	
	2	4	4	0	3	5	
	3	7	0	7	3	4	
49	1	1	8	0	10	5	
	2	3	5	0	8	5	
	3	7	0	3	8	5	
50	1	1	5	0	6	8	
	2	8	0	3	4	6	
	3	10	0	2	4	6	
51	1	3	9	0	9	6	
	2	7	8	0	8	6	
	3	8	0	3	7	6	
52	1	0	0	0	0	0	
************************************************************************

 RESOURCE AVAILABILITIES 
	R 1	R 2	N 1	N 2
	33	39	276	295

************************************************************************
